c
c start with comments
c
p cnf 20 18
-2 -9 -10 0
-2 -13 -13 12 0
-1 17 5 0
17 -19 -2 0
-8 -11 -16 -7 0
18 11 0
-8 4 1 0
-9 -7 -12 -18 0
-17 16 20 0
-2 -8 20 -16 -2 0
9 19 0
15 15 13 -5 3 12 0
2 -6 0
-15 1 -9 -15 0
17 -12 -12 -14 20 7 0
-17 -4 -14 -10 0
16 -8 -10 0
-8 7 6 6 15 5 0